JOBS = 1..3;
MACHINES = 1..4;
SPEED = 1;
time = array3d(JOBS,MACHINES,1..SPEED,[71,76,81,28,24,35,85,92,90,16,43,67]);
energy = array3d(JOBS,MACHINES,1..SPEED,[49,46,44,75,78,70,42,39,40,85,65,51]);
precedence = array2d(JOBS,MACHINES,[2,0,3,1,0,3,1,2,3,1,0,2]);
ME = 1;
TE = 109;
st_old = array2d(JOBS,MACHINES,[137,0,217,76,0,263,86,171,208,86,43,104]);
SpeedScaling = array2d(JOBS,MACHINES,[1,1,1,1,1,1,1,1,1,1,1,1]);
